Network Model 	 MSELoss 	 	Difference_Equivalent Stress Maximum (Mpa)_Percent	Difference_Equivalent Elastic Strain Maximum_Percent
5-10-10-10-50-10-2 	 0.0554 	 39.33491533912641	40.94724515783841
5-10-10-10-50-10-2 	 0.0688 	 35.95180026575191	33.29856009661736
5-10-10-10-50-10-2 	 0.0555 	 39.87335255287914	39.81895934402823
5-10-10-10-50-10-2 	 0.0556 	 40.04274333289604	39.72531078073578
5-10-10-10-50-10-2 	 0.0590 	 41.5727802783391	41.42474498622095
5-10-10-10-50-10-2 	 0.0608 	 39.42609322719199	39.55520713420823
5-10-10-10-50-10-2 	 0.0599 	 39.80583589285628	37.68209941216823
5-10-10-10-50-10-2 	 0.0620 	 38.87059843105583	39.314445591653865
5-10-10-10-50-10-2 	 0.0624 	 36.71591123279912	37.90730935076902
5-10-10-10-50-10-2 	 0.0578 	 39.89260400820342	39.752654840673394
5-10-10-10-50-10-2 	 0.0583 	 38.55200666959208	38.134486899606785
5-10-10-10-50-10-2 	 0.0581 	 39.27427545753861	41.542977672944126
5-10-10-10-50-10-2 	 0.0578 	 39.96839394811163	39.386820194598855
5-10-10-10-50-10-2 	 0.0535 	 40.83316315376398	39.150196355898544
5-10-10-10-50-10-2 	 0.0561 	 41.11996137905488	41.24435870543483
5-10-10-10-50-10-2 	 0.0576 	 41.28855478758125	39.12256617814124
5-10-10-10-50-10-2 	 0.0641 	 36.67479593931136	37.55986987959456
5-10-10-10-50-10-2 	 0.0585 	 39.61927739627215	38.97838480607805
5-10-10-10-50-10-2 	 0.0070 	 19.80663803608724	22.345083521614878
5-10-10-10-50-10-2 	 0.0077 	 17.583120276995206	17.799270013177605
5-10-10-10-50-10-2 	 0.0110 	 7.305828579387227	7.614401095047249
5-10-10-10-50-10-2 	 0.0063 	 23.680084813082356	24.20747007881495
5-10-10-10-50-10-2 	 0.0075 	 9.823993017870972	9.179690079314147
5-10-10-10-50-10-2 	 0.0085 	 10.098445201160446	10.193396710868043
5-10-10-10-50-10-2 	 0.0148 	 21.283719971121645	18.789035487694818
5-10-10-10-50-10-2 	 0.0033 	 34.743627460537446	34.64708563029788
5-10-10-10-50-10-2 	 0.0555 	 40.435195483368226	41.04636517420595
5-10-10-10-50-10-2 	 0.0576 	 40.6556180387802	40.70290053981894
5-10-10-10-50-10-2 	 0.0509 	 39.96471987174082	41.42326597718377
5-10-10-10-50-10-2 	 0.0564 	 39.61414073794079	39.51651960317287
5-10-10-10-50-10-2 	 0.0556 	 40.364255852913566	41.183331975400215
5-10-10-10-50-10-2 	 0.0080 	 17.768683160557973	18.177073187740625
5-10-10-10-50-10-2 	 0.0055 	 53.721681281640876	53.38662753634823
5-10-10-10-50-10-2 	 0.0718 	 39.79697229374588	40.25176316716182
5-10-10-10-50-10-2 	 0.0709 	 39.55855821807203	39.20496370840076
5-10-10-10-50-10-2 	 0.0682 	 38.790385502327105	38.7609704776108
5-10-10-10-50-10-2 	 0.0710 	 33.95293972143809	34.103533909296715
5-10-10-10-50-10-2 	 0.0709 	 32.664316906834955	32.53831286600642
5-10-10-10-50-10-2 	 0.0704 	 32.37962885250523	32.17395479037347
5-10-10-10-50-10-2 	 0.0682 	 33.28716270209668	33.03094172433191
5-10-10-10-50-10-2 	 0.0667 	 32.99621287769901	33.00706647639098
5-10-10-10-50-10-2 	 0.0720 	 32.84580314165065	32.74730652694942
5-10-10-10-50-10-2 	 0.0703 	 32.991855886889894	33.060407457947875
5-10-10-10-50-10-2 	 0.0679 	 33.16258157571307	33.180317765291896
5-10-10-10-50-10-2 	 0.0694 	 33.53026234557006	33.49981589749979
5-10-10-10-50-10-2 	 0.0714 	 32.59724959428191	32.60883239778674
5-10-10-10-50-10-2 	 0.0729 	 32.01992238080961	32.021887808707525
5-10-10-10-50-10-2 	 0.0688 	 33.474776743783025	33.21022263495564
5-10-10-10-50-10-2 	 0.0696 	 33.39917059012855	33.48600551383777
5-10-10-10-50-10-2 	 0.0128 	 8.062201696435036	8.075162785289052
5-10-10-10-50-10-2 	 0.0108 	 7.944445972053966	7.943515934961387
5-10-10-10-50-10-2 	 0.0091 	 7.996668594744265	8.006367348706966
5-20-2 	 0.0142 	 24.941461239795967	24.82362565550741
5-20-2 	 0.0127 	 20.649527692625533	20.268299830018446
5-20-2 	 0.0104 	 6.487712213982951	6.354986423840201
5-10-10-10-2 	 0.0065 	 6.065882980288954	5.578361566032134
5-10-30-10-2 	 0.0070 	 5.615532649857145	5.572308732331082
5-10-30-10-2 	 0.0076 	 5.895115216052666	5.873904102917978
5-10-30-10-2 	 0.0047 	 5.43459867393935	5.216841158134196
5-10-50-10-2 	 0.0058 	 5.9886344895038395	6.378414922433645
5-10-30-50-30-10-2 	 0.0078 	 5.570942296597449	5.572902408628436
5-10-2 	 0.0012 	 3.2127973306581117	3.2126458991503086
5-10-2 	 0.0029 	 5.982518644218298	5.982497484740087
5-20-2 	 0.0012 	 3.2509427851165134	3.251155218599506
5-10-10-2 	 0.0011 	 3.402256432400063	3.389848183161623
5-10-20-2 	 0.0010 	 3.258645165191677	3.2586285182903305
5-20-20-2 	 0.0010 	 3.3002686230812386	3.302381527282577
5-10-30-2 	 0.0011 	 3.2225244620426983	3.371323891368737
5-20-30-2 	 0.0011 	 3.2647486847950358	3.26478777132235
