MSELoss:0.0135
Difference_Equivalent Stress Maximum (Mpa):16.526447470655178
Difference_Equivalent Elastic Strain Maximum:16.42036730013059
